Cost: 1479
0-2-3-35-13-12-34-8-9-11-14-15-16-26-1-0
0-4-5-7-6-32-0
0-30-25-24-17-10-33-18-19-20-23-27-28-29-0
Cost: 1479
0-2-3-35-13-12-34-8-9-11-14-15-16-26-1-0
0-4-5-7-6-32-0
0-30-25-24-17-10-33-18-19-20-23-27-28-29-0
Cost: 1479
0-2-3-35-13-12-34-8-9-11-14-15-16-26-1-0
0-4-5-7-6-32-0
0-30-25-24-17-10-33-18-19-20-23-27-28-29-0
Cost: 1479
0-2-3-35-13-12-34-8-9-11-14-15-16-26-1-0
0-4-5-7-6-32-0
0-30-25-24-17-10-33-18-19-20-23-27-28-29-0
Cost: 1479
0-2-3-35-13-12-34-8-9-11-14-15-16-26-1-0
0-4-5-7-6-32-0
0-30-25-24-17-10-33-18-19-20-23-27-28-29-0
Cost: 1479
0-2-3-35-13-12-34-8-9-11-14-15-16-26-1-0
0-4-5-7-6-32-0
0-30-25-24-17-10-33-18-19-20-23-27-28-29-0
Cost: 1479
0-2-3-35-13-12-34-8-9-11-14-15-16-26-1-0
0-4-5-7-6-32-0
0-30-25-24-17-10-33-18-19-20-23-27-28-29-0
Cost: 1479
0-2-3-35-13-12-34-8-9-11-14-15-16-26-1-0
0-4-5-7-6-32-0
0-30-25-24-17-10-33-18-19-20-23-27-28-29-0
Cost: 1479
0-2-3-35-13-12-34-8-9-11-14-15-16-26-1-0
0-4-5-7-6-32-0
0-30-25-24-17-10-33-18-19-20-23-27-28-29-0
Cost: 1479
0-2-3-35-13-12-34-8-9-11-14-15-16-26-1-0
0-4-5-7-6-32-0
0-30-25-24-17-10-33-18-19-20-23-27-28-29-0
Cost: 1479
0-2-3-35-13-12-34-8-9-11-14-15-16-26-1-0
0-4-5-7-6-32-0
0-30-25-24-17-10-33-18-19-20-23-27-28-29-0
Cost: 1479
0-2-3-35-13-12-34-8-9-11-14-15-16-26-1-0
0-30-25-24-17-10-33-18-19-20-23-27-28-29-0
0-4-5-7-6-32-0
Cost: 1479
0-2-3-35-13-12-34-8-9-11-14-15-16-26-1-0
0-30-25-24-17-10-33-18-19-20-23-27-28-29-0
0-4-5-7-6-32-0
Cost: 1479
0-2-3-35-13-12-34-8-9-11-14-15-16-26-1-0
0-30-25-24-17-10-33-18-19-20-23-27-28-29-0
0-4-5-7-6-32-0
Cost: 1479
0-2-3-35-13-12-34-8-9-11-14-15-16-26-1-0
0-30-25-24-17-10-33-18-19-20-23-27-28-29-0
0-4-5-7-6-32-0
Cost: 1479
0-2-3-35-13-12-34-8-9-11-14-15-16-26-1-0
0-30-25-24-17-10-33-18-19-20-23-27-28-29-0
0-4-5-7-6-32-0
Cost: 1479
0-2-3-35-13-12-34-8-9-11-14-15-16-26-1-0
0-30-25-24-17-10-33-18-19-20-23-27-28-29-0
0-4-5-7-6-32-0
Cost: 1479
0-4-5-7-6-32-0
0-30-25-24-17-10-33-18-19-20-23-27-28-29-0
0-2-3-35-13-12-34-8-9-11-14-15-16-26-1-0
Cost: 1479
0-2-3-35-13-12-34-8-9-11-14-15-16-26-1-0
0-30-25-24-17-10-33-18-19-20-23-27-28-29-0
0-4-5-7-6-32-0
Cost: 1479
0-2-3-35-13-12-34-8-9-11-14-15-16-26-1-0
0-30-25-24-17-10-33-18-19-20-23-27-28-29-0
0-4-5-7-6-32-0
Cost: 1479
0-2-3-35-13-12-34-8-9-11-14-15-16-26-1-0
0-30-25-24-17-10-33-18-19-20-23-27-28-29-0
0-4-5-7-6-32-0
Cost: 1479
0-2-3-35-13-12-34-8-9-11-14-15-16-26-1-0
0-30-25-24-17-10-33-18-19-20-23-27-28-29-0
0-4-5-7-6-32-0
Cost: 1479
0-2-3-35-13-12-34-8-9-11-14-15-16-26-1-0
0-30-25-24-17-10-33-18-19-20-23-27-28-29-0
0-4-5-7-6-32-0
Cost: 1479
0-2-3-35-13-12-34-8-9-11-14-15-16-26-1-0
0-30-25-24-17-10-33-18-19-20-23-27-28-29-0
0-4-5-7-6-32-0
Cost: 1479
0-2-3-35-13-12-34-8-9-11-14-15-16-26-1-0
0-30-25-24-17-10-33-18-19-20-23-27-28-29-0
0-4-5-7-6-32-0
Cost: 1479
0-2-3-35-13-12-34-8-9-11-14-15-16-26-1-0
0-30-25-24-17-10-33-18-19-20-23-27-28-29-0
0-4-5-7-6-32-0
Cost: 1479
0-2-3-35-13-12-34-8-9-11-14-15-16-26-1-0
0-30-25-24-17-10-33-18-19-20-23-27-28-29-0
0-4-5-7-6-32-0
Cost: 1479
0-2-3-35-13-12-34-8-9-11-14-15-16-26-1-0
0-30-25-24-17-10-33-18-19-20-23-27-28-29-0
0-4-5-7-6-32-0
Cost: 1479
0-2-3-35-13-12-34-8-9-11-14-15-16-26-1-0
0-30-25-24-17-10-33-18-19-20-23-27-28-29-0
0-4-5-7-6-32-0
Cost: 1479
0-2-3-35-13-12-34-8-9-11-14-15-16-26-1-0
0-30-25-24-17-10-33-18-19-20-23-27-28-29-0
0-4-5-7-6-32-0
Cost: 1479
0-2-3-35-13-12-34-8-9-11-14-15-16-26-1-0
0-30-25-24-17-10-33-18-19-20-23-27-28-29-0
0-4-5-7-6-32-0
Cost: 1479
0-30-25-24-17-10-33-18-19-20-23-27-28-29-0
0-4-5-7-6-32-0
0-2-3-35-13-12-34-8-9-11-14-15-16-26-1-0
Cost: 1479
0-30-25-24-17-10-33-18-19-20-23-27-28-29-0
0-2-4-5-7-6-32-0
0-3-35-13-12-34-8-9-11-14-15-16-26-1-0
Cost: 1479
0-30-25-24-17-10-33-18-19-20-23-27-28-29-0
0-2-4-5-7-6-32-0
0-3-35-13-12-34-8-9-11-14-15-16-26-1-0
Cost: 1479
0-3-35-13-12-34-8-9-11-14-15-16-26-1-0
0-2-4-5-7-6-32-0
0-30-25-24-17-10-33-18-19-20-23-27-28-29-0
Cost: 1479
0-3-35-13-12-34-8-9-11-14-15-16-26-1-0
0-30-25-24-17-10-33-18-19-20-23-27-28-29-0
0-2-4-5-7-6-32-0
